1, 36, 31, 32, 24, 37, 47, 46, 45, 44, 25, 30, 1
1, 15, 52, 53, 22, 21, 27, 28, 29, 23, 26, 20, 19, 17, 1
1, 34, 35, 39, 42, 43, 51, 50, 48, 49, 41, 40, 38, 33, 1
1, 14, 16, 4, 6, 5, 9, 12, 11, 10, 13, 8, 7, 3, 2, 18, 1
